
Gurobi 9.5.2 (win64) logging started Mon Mar 27 20:45:16 2023

Set parameter LogFile to value "2023-03-27_20hr-25min-09sec/Nodes20_Arcs35_LocNodes15/Formulation-1Instance-3.log"
Set parameter TimeLimit to value 600
Set parameter IntFeasTol to value 1e-09
Set parameter DualReductions to value 0
Set parameter NonConvex to value 2
Gurobi Optimizer version 9.5.2 build v9.5.2rc0 (win64)
Thread count: 4 physical cores, 8 logical processors, using up to 8 threads
Optimize a model with 91 rows, 160 columns and 350 nonzeros
Model fingerprint: 0xcc6845cb
Model has 15 quadratic objective terms
Model has 55 SOS constraints
Variable types: 145 continuous, 15 integer (15 binary)
Coefficient statistics:
  Matrix range     [1e-01, 2e+02]
  Objective range  [3e+00, 2e+02]
  QObjective range [2e+00, 2e+00]
  Bounds range     [1e+00, 1e+00]
  RHS range        [4e-02, 1e+03]
Presolve removed 15 rows and 22 columns
Presolve time: 0.00s
Presolved: 99 rows, 151 columns, 341 nonzeros
Presolved model has 43 SOS constraint(s)
Presolved model has 11 bilinear constraint(s)
Variable types: 136 continuous, 15 integer (15 binary)

Root relaxation: unbounded, 74 iterations, 0.00 seconds (0.00 work units)

    Nodes    |    Current Node    |     Objective Bounds      |     Work
 Expl Unexpl |  Obj  Depth IntInf | Incumbent    BestBd   Gap | It/Node Time

     0     0  postponed    0               -          -      -     -    0s
     0     0  postponed    0               -          -      -     -    0s
Exploring 100 nodes in MinRel heuristic
No solution found by MinRel heuristic
     0     2  postponed    0               -          -      -     -    0s
Exploring 10000 nodes in MinRel heuristic
H 4391   760                    -3339.506357          -      -  12.1    0s
Feasible solution found by MinRel heuristic at node 435
 27516  1430 infeasible   37      -3339.5064          -      -  10.3    5s
H48305  1829                    -2409.506357          -      -   9.5    8s
H51903   842                    232325.68385          -      -   9.7    9s
 52848   799 infeasible   29      232325.684          -      -   9.7   10s
H53818   660                    232905.68385          -      -   9.8   10s
*55453   485              67    278746.51538          -      -   9.9   11s
*55470   485              80    278747.77015          -      -   9.9   11s
*55474   485              83    278747.78739          -      -   9.9   11s
*55476   485              84    278747.78824          -      -   9.9   11s
*56802   401              46    299089.18318          -      -  10.0   11s
*56806   401              46    300434.67908          -      -  10.0   11s
*56808   401              47    300824.06716          -      -  10.0   11s
*56810   401              48    300944.25136          -      -  10.0   11s
*56815   401              52    300957.77550          -      -  10.0   11s
*56822   401              57    300972.91326          -      -  10.0   11s
*56916   401              47    300976.43404          -      -   9.9   11s
*56918   401              48    301031.16049          -      -   9.9   11s
*56921   401              50    301032.86191          -      -   9.9   11s
*56923   401              51    301034.06758          -      -   9.9   11s
*56925   401              52    301034.93148          -      -   9.9   11s
*56927   401              53    301035.55325          -      -   9.9   11s
*56929   401              54    301036.00095          -      -   9.9   11s
*56931   401              55    301036.32191          -      -   9.9   11s
*56933   401              56    301036.54964          -      -   9.9   11s
*56935   401              57    301036.70822          -      -   9.9   11s
*56937   401              58    301036.81515          -      -   9.9   11s
*56939   401              59    301036.88335          -      -   9.9   11s
*56941   401              60    301036.92238          -      -   9.9   11s
*56943   401              61    301036.93947          -      -   9.9   11s
*56946   401              63    301036.93985          -      -   9.9   11s
*56948   401              64    301036.94018          -      -   9.9   11s
*56950   401              65    301036.94045          -      -   9.9   11s
*56952   401              66    301036.94068          -      -   9.9   11s
*56954   401              67    301036.94088          -      -   9.9   11s
*56956   401              68    301036.94104          -      -   9.9   11s
*56958   401              69    301036.94117          -      -   9.9   11s
*60419   434              83    302675.79654          -      -  10.3   12s
*60421   434              84    302675.89693          -      -  10.3   12s
*60424   434              86    302675.90121          -      -  10.3   12s
*60428   434              88    302675.90141          -      -  10.3   12s
*61062   475              56    302735.32252          -      -  10.4   12s
*61065   475              58    303092.20968          -      -  10.4   12s
*61069   475              60    303096.02262          -      -  10.4   12s
*61071   475              61    303108.58172          -      -  10.4   12s
*61073   475              62    303109.08994          -      -  10.4   12s
*61076   475              64    303109.31613          -      -  10.4   12s
*61078   475              65    303109.34656          -      -  10.4   12s
H61114   475                    305528.76191          -      -  10.4   12s
H61407   475                    305695.71865          -      -  10.4   12s
H61693   511                    305818.69889          -      -  10.4   12s
H61693   511                    305884.71865          -      -  10.4   12s
*62483   713              57    305886.35591          -      -  10.4   12s
*62484   713              57    305893.14398          -      -  10.4   12s
*62792   713              59    305908.02918          -      -  10.4   13s
*62799   713              65    305908.79876          -      -  10.4   13s
*62801   713              66    305908.83720          -      -  10.4   13s
*62809   713              73    305908.83729          -      -  10.4   13s
H63078   713                    306220.32520          -      -  10.3   13s
*63133   713             102    306220.88202          -      -  10.3   13s
*64471   357              68    306220.88206 320795.947  4.76%  10.1   13s
*64473   357              66    306220.88465 320795.947  4.76%  10.1   13s
*64475   357              67    306220.88571 320795.947  4.76%  10.1   13s
*64477   357              68    306220.88701 320795.947  4.76%  10.1   13s
H64478   357                    306220.88781 320795.947  4.76%  10.1   13s
*64479   357              69    306220.88810 320795.947  4.76%  10.1   13s
*64481   357              70    306220.88912 320795.947  4.76%  10.1   13s
*64482   357              70    306220.89398 320795.947  4.76%  10.1   13s
*64746   594              60    306220.91187 316220.490  3.27%  10.1   13s
*64748   594              61    306220.91229 316220.490  3.27%  10.1   13s
*64750   594              62    306220.91266 316220.490  3.27%  10.1   13s
*64752   594              63    306220.91298 316220.490  3.27%  10.1   13s
*64754   594              64    306220.91328 316220.490  3.27%  10.1   13s
*64756   594              65    306220.91353 316220.490  3.27%  10.1   13s
*64758   594              66    306220.91376 316220.490  3.27%  10.1   13s
*64760   594              67    306220.91397 316220.490  3.27%  10.1   13s
*64762   594              68    306220.91415 316220.490  3.27%  10.1   13s
*64764   594              69    306220.91431 316220.490  3.27%  10.1   13s
*64766   594              70    306220.91446 316220.490  3.27%  10.1   13s
*64768   594              71    306220.91458 316220.490  3.27%  10.1   13s
*64770   594              72    306220.91470 316220.490  3.27%  10.1   13s
*64772   594              73    306220.91480 316220.490  3.27%  10.1   13s
*64774   594              74    306220.91489 316220.490  3.27%  10.1   13s
*64776   594              75    306220.91496 316220.490  3.27%  10.1   13s
*64778   594              76    306220.91503 316220.490  3.27%  10.1   13s
*64780   594              77    306220.91510 316220.490  3.27%  10.1   13s
*64782   594              78    306220.91515 316220.490  3.27%  10.1   13s
*64784   594              79    306220.91520 316220.490  3.27%  10.1   13s
*64786   594              80    306220.91524 316220.490  3.27%  10.1   13s
*64788   594              81    306220.91528 316220.490  3.27%  10.1   13s
*64790   594              82    306220.91532 316220.490  3.27%  10.1   13s
*64794   594              84    306220.91537 316220.490  3.27%  10.1   13s
*64798   594              86    306220.91542 316220.490  3.27%  10.1   13s
*64802   594              88    306220.91545 316220.490  3.27%  10.1   13s
*64808   594              91    306220.91548 316220.490  3.27%  10.1   13s
*64818   594              96    306220.91552 316220.490  3.27%  10.1   13s
*65281   594              60    306227.09376 314672.258  2.76%  10.0   13s
*65283   594              61    306232.19145 314672.258  2.76%  10.0   13s
*65288   594              65    306232.25639 314672.258  2.76%  10.0   13s
*65290   594              66    306232.30517 314672.258  2.76%  10.0   13s
*65293   594              68    306232.31486 314672.258  2.76%  10.0   13s
*65296   594              70    306232.31679 314672.258  2.76%  10.0   13s
*65298   594              71    306232.31819 314672.258  2.76%  10.0   13s
*65300   594              72    306232.31920 314672.258  2.76%  10.0   13s
*65302   594              73    306232.31994 314672.258  2.76%  10.0   13s
*65304   594              74    306232.32047 314672.258  2.76%  10.0   13s
H65306   594                    306232.32086 314672.258  2.76%  10.0   13s
*65319   594              63    306237.08711 314672.258  2.75%  10.0   13s
*65325   594              66    306240.98134 314672.258  2.75%  10.0   13s
*65327   594              67    306241.09706 314672.258  2.75%  10.0   13s
*65329   594              68    306241.12036 314672.258  2.75%  10.0   13s
*65331   594              69    306241.12501 314672.258  2.75%  10.0   13s
*65333   594              70    306241.12593 314672.258  2.75%  10.0   13s
*65335   594              71    306241.12612 314672.258  2.75%  10.0   13s
*65338   594              72    306241.12617 314672.258  2.75%  10.0   13s
*66078  1261              68    306252.47295 307096.833  0.28%   9.9   13s
H66355  1261                    306256.47181 307091.503  0.27%   9.9   13s
*67401   735              84    306256.48901 306732.462  0.16%   9.7   13s
*67430   735              76    306256.58254 306732.462  0.16%   9.7   13s
*67784   735              79    306256.68493 306335.490  0.03%   9.7   13s
H67926   735                    306256.68697 306317.455  0.02%   9.7   13s
*68077   735              68    306256.69060 306317.455  0.02%   9.7   13s
*68085   735              73    306256.69063 306317.455  0.02%   9.6   13s

Explored 68545 nodes (657509 simplex iterations) in 13.86 seconds (2.46 work units)
Thread count was 8 (of 8 available processors)

Solution count 10: 306257 306257 306257 ... 306241

Optimal solution found (tolerance 1.00e-04)
Best objective 3.062566906321e+05, best bound 3.062608724811e+05, gap 0.0014%

User-callback calls 138044, time in user-callback 1.26 sec
